(set-logic QF_LIA)
(declare-fun x0 () Int)
(declare-fun x1 () Int)
(declare-fun x2 () Int)
(declare-fun x3 () Int)
(declare-fun x4 () Int)
(declare-fun x5 () Int)
(declare-fun x6 () Int)
(declare-fun x7 () Int)
(declare-fun x8 () Int)
(declare-fun x9 () Int)
(declare-fun A0 () Bool)
(declare-fun A1 () Bool)
(declare-fun A2 () Bool)
(declare-fun A5 () Bool)
(declare-fun A7 () Bool)
(declare-fun A8 () Bool)
(declare-fun A9 () Bool)
(assert (let ((.def_0 (not A1))) (let ((.def_1 (or .def_0 A9))) (let ((.def_2 (or A2 A2))) (let ((.def_3 (not .def_2))) (let ((.def_4 (and .def_3 .def_1))) (let ((.def_5 (* 1 x3))) (let ((.def_6 (* (- 1) x2))) (let ((.def_7 (+ .def_6 .def_5))) (let ((.def_8 (< .def_7 (- 1)))) (let ((.def_9 (not .def_8))) (let ((.def_10 (not A5))) (let ((.def_11 (or .def_10 .def_9))) (let ((.def_12 (not A2))) (let ((.def_13 (= A1 .def_12))) (let ((.def_14 (not .def_13))) (let ((.def_15 (and .def_14 .def_11))) (let ((.def_16 (not .def_15))) (let ((.def_17 (or .def_16 .def_4))) (let ((.def_18 (* 1 x5))) (let ((.def_19 (* 1 x0))) (let ((.def_20 (+ .def_19 .def_18))) (let ((.def_21 (< .def_20 1))) (let ((.def_22 (not .def_21))) (let ((.def_23 (* (- 1) x8))) (let ((.def_24 (< .def_23 1))) (let ((.def_25 (and .def_24 .def_22))) (let ((.def_26 (< .def_19 1))) (let ((.def_27 (or .def_26 A5))) (let ((.def_28 (= .def_27 .def_25))) (let ((.def_29 (* 1 x2))) (let ((.def_30 (< .def_29 1))) (let ((.def_31 (or A7 .def_30))) (let ((.def_32 (* (- 1) x4))) (let ((.def_33 (< .def_32 (- 1)))) (let ((.def_34 (not .def_33))) (let ((.def_35 (or A9 .def_34))) (let ((.def_36 (or .def_35 .def_31))) (let ((.def_37 (and .def_36 .def_28))) (let ((.def_38 (or .def_37 .def_17))) (let ((.def_39 (not .def_38))) (let ((.def_40 (* (- 1) x7))) (let ((.def_41 (+ .def_40 .def_32))) (let ((.def_42 (< .def_41 1))) (let ((.def_43 (* 1 x7))) (let ((.def_44 (< .def_43 1))) (let ((.def_45 (not .def_44))) (let ((.def_46 (and .def_45 .def_42))) (let ((.def_47 (not .def_46))) (let ((.def_48 (or A1 A8))) (let ((.def_49 (and .def_48 .def_47))) (let ((.def_50 (not .def_26))) (let ((.def_51 (or .def_50 A5))) (let ((.def_52 (* 1 x6))) (let ((.def_53 (+ .def_40 .def_52))) (let ((.def_54 (< .def_53 1))) (let ((.def_55 (or .def_54 A0))) (let ((.def_56 (or .def_55 .def_51))) (let ((.def_57 (not .def_56))) (let ((.def_58 (or .def_57 .def_49))) (let ((.def_59 (not .def_58))) (let ((.def_60 (* 1 x8))) (let ((.def_61 (+ .def_60 .def_6))) (let ((.def_62 (< .def_61 1))) (let ((.def_63 (not .def_62))) (let ((.def_64 (* 1 x9))) (let ((.def_65 (< .def_64 1))) (let ((.def_66 (and .def_65 .def_63))) (let ((.def_67 (or A7 .def_44))) (let ((.def_68 (or .def_67 .def_66))) (let ((.def_69 (not A0))) (let ((.def_70 (* 1 x4))) (let ((.def_71 (< .def_70 1))) (let ((.def_72 (or .def_71 .def_69))) (let ((.def_73 (+ .def_29 .def_52))) (let ((.def_74 (< .def_73 1))) (let ((.def_75 (not .def_74))) (let ((.def_76 (or .def_12 .def_75))) (let ((.def_77 (not .def_76))) (let ((.def_78 (and .def_77 .def_72))) (let ((.def_79 (not .def_78))) (let ((.def_80 (or .def_79 .def_68))) (let ((.def_81 (not .def_80))) (let ((.def_82 (and .def_81 .def_59))) (let ((.def_83 (and .def_82 .def_39))) (let ((.def_84 (not .def_83))) (let ((.def_85 (<= x9 1))) (let ((.def_86 (<= 0 x9))) (let ((.def_87 (<= x8 1))) (let ((.def_88 (<= 0 x8))) (let ((.def_89 (<= x7 1))) (let ((.def_90 (<= 0 x7))) (let ((.def_91 (<= x6 1))) (let ((.def_92 (<= 0 x6))) (let ((.def_93 (<= x5 1))) (let ((.def_94 (<= 0 x5))) (let ((.def_95 (<= x4 1))) (let ((.def_96 (<= 0 x4))) (let ((.def_97 (<= x3 1))) (let ((.def_98 (<= 0 x3))) (let ((.def_99 (<= x2 1))) (let ((.def_100 (<= 0 x2))) (let ((.def_101 (<= x1 1))) (let ((.def_102 (<= 0 x1))) (let ((.def_103 (<= x0 1))) (let ((.def_104 (<= 0 x0))) (let ((.def_105 (and .def_104 .def_103 .def_102 .def_101 .def_100 .def_99 .def_98 .def_97 .def_96 .def_95 .def_94 .def_93 .def_92 .def_91 .def_90 .def_89 .def_88 .def_87 .def_86 .def_85 .def_84))) .def_105)))))))))))))))))))))))))))))))))))))))))))))))))))))))))))))))))))))))))))))))))))))))))))))))))))))))))))
(check-sat)
